# Components (V)
1 2 3 4 5 6 7 8 9 10 11 12 13 14 15 16 17 18 19 20 21 22 23 24 25 26 27 28 29 30 31 32 33 34 35 36 37 38 39 40 41 42 43 44 45 46 47 48 49 50 51 52 53 54 55 56 57 58 59 60 61 62 63 64 65 66 67 68 69 70 71 72 73 74 75 76 77 78 79 80 81 82 83 84 85 86 87 88 89 90 91 92 93 94 95 96 97 98 99 100

# Precedence arcs (E)
1 15
2 15
3 15
4 33
5 33
6 33
7 44
8 9
8 10
8 11
8 12
8 13
8 14
9 15
10 15
11 15
12 44
13 44
14 16
14 17
14 18
14 19
14 20
14 21
14 32
15 22
15 23
15 24
15 25
15 26
15 27
15 28
15 29
15 31
15 32
16 33
17 33
18 44
19 44
20 57
21 30
21 34
21 35
21 36
21 37
22 33
23 34
23 37
23 55
24 33
24 39
25 35
26 38
27 54
28 74
28 77
28 79
29 36
29 79
30 33
31 44
32 36
32 57
32 59
33 40
33 41
33 42
33 43
34 44
35 44
36 81
37 57
38 57
39 45
40 52
40 53
41 77
41 93
41 95
42 54
42 55
43 53
43 59
44 46
44 47
44 48
44 49
44 50
44 51
46 57
47 56
47 78
48 56
49 58
49 60
49 75
50 95
51 56
51 58
51 59
51 75
51 77
51 79
51 83
52 57
53 57
54 57
55 61
55 78
55 83
56 81
57 62
57 63
57 64
57 65
57 66
57 67
57 68
57 69
59 70
59 78
60 61
60 70
60 71
60 72
60 77
61 81
62 72
62 73
62 74
62 76
63 83
64 77
65 80
66 74
66 75
67 71
68 71
68 80
69 77
70 73
71 81
72 81
73 81
74 81
75 81
76 78
76 79
76 80
78 81
79 82
79 97
80 83
81 84
81 85
81 86
81 87
81 88
81 89
81 90
81 91
82 99
83 99
83 100
85 96
86 93
86 95
87 92
87 93
88 94
89 97
90 96
91 93
91 95
93 96
94 97
95 97
95 98
96 98
98 99
98 100

# Target components (T)
97 84

# Revenues (r)
1 30
2 23
3 25
4 20
5 21
6 28
7 21
8 25
9 21
10 27
11 20
12 26
13 22
14 22
15 28
16 25
17 26
18 24
19 25
20 26
21 26
22 23
23 28
24 30
25 26
26 29
27 27
28 27
29 29
30 27
31 29
32 28
33 29
34 29
35 23
36 26
37 29
38 27
39 25
40 25
41 30
42 25
43 29
44 29
45 28
46 27
47 20
48 24
49 25
50 30
51 27
52 23
53 24
54 20
55 25
56 30
57 21
58 27
59 24
60 24
61 23
62 28
63 30
64 23
65 24
66 26
67 30
68 21
69 28
70 29
71 21
72 23
73 22
74 26
75 29
76 23
77 29
78 23
79 23
80 29
81 23
82 27
83 20
84 29
85 25
86 25
87 24
88 28
89 26
90 27
91 30
92 27
93 24
94 25
95 24
96 25
97 28
98 23
99 28
100 29

# Costs (c)
1 8
2 4
3 4
4 9
5 1
6 10
7 2
8 9
9 2
10 5
11 10
12 1
13 1
14 4
15 10
16 8
17 8
18 10
19 5
20 4
21 2
22 6
23 10
24 6
25 5
26 3
27 10
28 8
29 3
30 9
31 6
32 3
33 5
34 4
35 10
36 2
37 5
38 5
39 2
40 5
41 7
42 8
43 2
44 3
45 4
46 7
47 5
48 2
49 4
50 7
51 3
52 9
53 9
54 6
55 8
56 3
57 10
58 9
59 4
60 9
61 7
62 4
63 4
64 6
65 6
66 4
67 2
68 6
69 5
70 2
71 4
72 3
73 3
74 6
75 1
76 6
77 8
78 7
79 3
80 2
81 10
82 3
83 8
84 5
85 4
86 7
87 5
88 9
89 10
90 7
91 8
92 9
93 2
94 1
95 4
96 10
97 8
98 4
99 4
100 7

# Durations (p)
1 559
2 143
3 114
4 130
5 487
6 208
7 282
8 172
9 166
10 125
11 252
12 490
13 274
14 526
15 526
16 156
17 338
18 192
19 65
20 115
21 260
22 468
23 105
24 164
25 73
26 113
27 20
28 508
29 72
30 236
31 74
32 484
33 227
34 523
35 138
36 189
37 401
38 204
39 113
40 320
41 519
42 185
43 569
44 142
45 300
46 523
47 160
48 198
49 203
50 203
51 504
52 448
53 97
54 506
55 169
56 349
57 137
58 106
59 162
60 57
61 58
62 126
63 215
64 391
65 65
66 126
67 219
68 154
69 251
70 252
71 145
72 341
73 121
74 249
75 178
76 571
77 23
78 78
79 246
80 319
81 39
82 445
83 41
84 146
85 311
86 387
87 507
88 78
89 192
90 172
91 227
92 175
93 345
94 556
95 233
96 478
97 137
98 233
99 187
100 32

orderrules
1 15 au000 avant au014
2 15 au001 avant au014
3 15 au002 avant au014
4 33 au003 avant au032
5 33 au004 avant au032
6 33 au005 avant au032
7 44 au006 avant au043
8 9 au007 avant au008
8 10 au007 avant au009
8 11 au007 avant au010
8 12 au007 avant au011
8 13 au007 avant au012
8 14 au007 avant au013
9 15 au008 avant au014
10 15 au009 avant au014
11 15 au010 avant au014
12 44 au011 avant au043
13 44 au012 avant au043
14 16 au013 avant au015
14 17 au013 avant au016
14 18 au013 avant au017
14 19 au013 avant au018
14 20 au013 avant au019
14 21 au013 avant au020
14 32 au013 avant au031
15 22 au014 avant au021
15 23 au014 avant au022
15 24 au014 avant au023
15 25 au014 avant au024
15 26 au014 avant au025
15 27 au014 avant au026
15 28 au014 avant au027
15 29 au014 avant au028
15 31 au014 avant au030
15 32 au014 avant au031
16 33 au015 avant au032
17 33 au016 avant au032
18 44 au017 avant au043
19 44 au018 avant au043
20 57 au019 avant au056
21 30 au020 avant au029
21 34 au020 avant au033
21 35 au020 avant au034
21 36 au020 avant au035
21 37 au020 avant au036
22 33 au021 avant au032
23 34 au022 avant au033
23 37 au022 avant au036
23 55 au022 avant au054
24 33 au023 avant au032
24 39 au023 avant au038
25 35 au024 avant au034
26 38 au025 avant au037
27 54 au026 avant au053
28 74 au027 avant au073
28 77 au027 avant au076
28 79 au027 avant au078
29 36 au028 avant au035
29 79 au028 avant au078
30 33 au029 avant au032
31 44 au030 avant au043
32 36 au031 avant au035
32 57 au031 avant au056
32 59 au031 avant au058
33 40 au032 avant au039
33 41 au032 avant au040
33 42 au032 avant au041
33 43 au032 avant au042
34 44 au033 avant au043
35 44 au034 avant au043
36 81 au035 avant au080
37 57 au036 avant au056
38 57 au037 avant au056
39 45 au038 avant au044
40 52 au039 avant au051
40 53 au039 avant au052
41 77 au040 avant au076
41 93 au040 avant au092
41 95 au040 avant au094
42 54 au041 avant au053
42 55 au041 avant au054
43 53 au042 avant au052
43 59 au042 avant au058
44 46 au043 avant au045
44 47 au043 avant au046
44 48 au043 avant au047
44 49 au043 avant au048
44 50 au043 avant au049
44 51 au043 avant au050
46 57 au045 avant au056
47 56 au046 avant au055
47 78 au046 avant au077
48 56 au047 avant au055
49 58 au048 avant au057
49 60 au048 avant au059
49 75 au048 avant au074
50 95 au049 avant au094
51 56 au050 avant au055
51 58 au050 avant au057
51 59 au050 avant au058
51 75 au050 avant au074
51 77 au050 avant au076
51 79 au050 avant au078
51 83 au050 avant au082
52 57 au051 avant au056
53 57 au052 avant au056
54 57 au053 avant au056
55 61 au054 avant au060
55 78 au054 avant au077
55 83 au054 avant au082
56 81 au055 avant au080
57 62 au056 avant au061
57 63 au056 avant au062
57 64 au056 avant au063
57 65 au056 avant au064
57 66 au056 avant au065
57 67 au056 avant au066
57 68 au056 avant au067
57 69 au056 avant au068
59 70 au058 avant au069
59 78 au058 avant au077
60 61 au059 avant au060
60 70 au059 avant au069
60 71 au059 avant au070
60 72 au059 avant au071
60 77 au059 avant au076
61 81 au060 avant au080
62 72 au061 avant au071
62 73 au061 avant au072
62 74 au061 avant au073
62 76 au061 avant au075
63 83 au062 avant au082
64 77 au063 avant au076
65 80 au064 avant au079
66 74 au065 avant au073
66 75 au065 avant au074
67 71 au066 avant au070
68 71 au067 avant au070
68 80 au067 avant au079
69 77 au068 avant au076
70 73 au069 avant au072
71 81 au070 avant au080
72 81 au071 avant au080
73 81 au072 avant au080
74 81 au073 avant au080
75 81 au074 avant au080
76 78 au075 avant au077
76 79 au075 avant au078
76 80 au075 avant au079
78 81 au077 avant au080
79 82 au078 avant au081
79 97 au078 avant au096
80 83 au079 avant au082
81 84 au080 avant au083
81 85 au080 avant au084
81 86 au080 avant au085
81 87 au080 avant au086
81 88 au080 avant au087
81 89 au080 avant au088
81 90 au080 avant au089
81 91 au080 avant au090
82 99 au081 avant au098
83 99 au082 avant au098
83 100 au082 avant au099
85 96 au084 avant au095
86 93 au085 avant au092
86 95 au085 avant au094
87 92 au086 avant au091
87 93 au086 avant au092
88 94 au087 avant au093
89 97 au088 avant au096
90 96 au089 avant au095
91 93 au090 avant au092
91 95 au090 avant au094
93 96 au092 avant au095
94 97 au093 avant au096
95 97 au094 avant au096
95 98 au094 avant au097
96 98 au095 avant au097
98 99 au097 avant au098
98 100 au097 avant au099
